analyze/results_flowersnark/final_miplib_symretope_if_extended_generating_set_cpx_v802__settings_final_nopeek_norelabel_extend_norestarts__0__mspp16.mps.gz.sol
solution status: optimal solution found
objective value:                                  363
C560                                                1 	(obj:11)
C57290                                              1 	(obj:11)
C250277                                             1 	(obj:11)
C650369                                             1 	(obj:11)
C1340702                                            1 	(obj:11)
C2416700                                            1 	(obj:11)
C3986075                                            1 	(obj:11)
C6168827                                            1 	(obj:11)
C9097244                                            1 	(obj:11)
C12915902                                           1 	(obj:11)
C17781665                                           1 	(obj:11)
C23863685                                           1 	(obj:11)
C31343402                                           1 	(obj:11)
C40414544                                           1 	(obj:11)
C51283127                                           1 	(obj:11)
C61300127                                           1 	(obj:11)
C64530479                                           1 	(obj:11)
C65076935                                           1 	(obj:11)
C65625695                                           1 	(obj:11)
C66176759                                           1 	(obj:11)
C66730127                                           1 	(obj:11)
C92704535                                           1 	(obj:11)
C95337335                                           1 	(obj:11)
C96001295                                           1 	(obj:11)
C97336127                                           1 	(obj:11)
C98680175                                           1 	(obj:11)
C99130239                                           1 	(obj:11)
C264695535                                          1 	(obj:11)
C265801095                                          1 	(obj:11)
C266908959                                          1 	(obj:11)
C270246375                                          1 	(obj:11)
C272482839                                          1 	(obj:11)
C275854815                                          1 	(obj:11)
