analyze/results_flowersnark/final_miplib_symretope_if_extended_generating_set_cpx_v802__settings_final_nopeek_norelabel_extend_norestarts__0__mspp16.mps.gz.out
FILENAME:   /home/mcs001/s132664/testsets/IP/miplib2010/mspp16.mps.gz
SETTINGS:   settings_final_nopeek_norelabel_extend_norestarts
TIMELIMIT:  7200
OUTPUTNAME: final_miplib_symretope_if_extended_generating_set_cpx_v802__settings_final_nopeek_norelabel_extend_norestarts__0__
BINNAME:    bin/sbcs.linux.x86_64.gnu.opt.cpx
BASENAME:   mspp16.mps.gz
SEED:       0
@01 /home/mcs001/s132664/testsets/IP/miplib2010/mspp16.mps.gz ===========
@02 mspp16.mps.gz
@03 1686649268
SCIP version 8.0.2 [precision: 8 byte] [memory: block] [mode: optimized] [LP solver: CPLEX 20.1.0.0] [GitHash: 5f0473c]
Copyright (C) 2002-2022 Konrad-Zuse-Zentrum fuer Informationstechnik Berlin (ZIB)

Symretope propagation methods - (c) Jasper van Doornmalen, Christopher Hojny.
[GitHash: 2fd0484]

reading parameter file <../settings/settings_final_nopeek_norelabel_extend_norestarts.set> ...

Changed settings:
limits/time = 7200
limits/restarts = 0
misc/usesymmetry = 1
constraints/orbisack/sepafreq = -1
constraints/symresack/sepafreq = -1
propagating/symmetry/addsymresacks = TRUE
propagating/symmetry/detectsubgroups = FALSE
propagating/symmetry/relabelsymretopes = 0
propagating/symmetry/extendgenerators = TRUE
propagating/symmetry/ofsymcomptiming = 0
constraints/symretope/sepafreq = -1
constraints/symretope/peek = FALSE


solving problem ...

original problem has 29280 variables (29280 bin, 0 int, 0 impl, 0 cont) and 561657 constraints
presolving:
(round 1, fast)       25215 del vars, 36781 del conss, 0 add conss, 25215 chg bounds, 991 chg sides, 0 chg coeffs, 0 upgd conss, 0 impls, 1726 clqs
(round 2, exhaustive) 25215 del vars, 36843 del conss, 0 add conss, 25215 chg bounds, 991 chg sides, 0 chg coeffs, 524798 upgd conss, 0 impls, 1726 clqs
(round 3, medium)     25215 del vars, 37053 del conss, 210 add conss, 25215 chg bounds, 1201 chg sides, 3360 chg coeffs, 524798 upgd conss, 0 impls, 1935 clqs
   (55.3s) sparsify aborted: 480/27555495 (0.0%) nonzeros canceled - in total 480 canceled nonzeros, 480 changed coefficients, 0 added nonzeros
   (84.6s) probing: 93/4065 (2.3%) - 0 fixings, 0 aggregations, 225 implications, 0 bound changes
   (84.6s) probing aborted: 50/50 successive totally useless probings
   (90.7s) symmetry computation started: requiring (bin +, int +, cont +), (fixed: bin -, int -, cont -)
   (246.1s) symmetry computation finished: 39 generators found (max: 1500, log10 of symmetry group size: 34.3)
(round 4, exhaustive) 25215 del vars, 37053 del conss, 638 add conss, 25215 chg bounds, 1201 chg sides, 4080 chg coeffs, 524798 upgd conss, 0 impls, 2160 clqs
presolving (5 rounds: 5 fast, 4 medium, 3 exhaustive):
 25215 deleted vars, 37053 deleted constraints, 638 added constraints, 25215 tightened bounds, 0 added holes, 1217 changed sides, 4320 changed coefficients
 0 implications, 2160 cliques
presolved problem has 4065 variables (4065 bin, 0 int, 0 impl, 0 cont) and 525242 constraints
 522878 constraints of type <knapsack>
   1936 constraints of type <setppc>
    391 constraints of type <orbisack>
     37 constraints of type <symretope>
transformed objective value is always integral (scale: 11)
Presolving Time: 248.35

 time | node  | left  |LP iter|LP it/n|mem/heur|mdpt |vars |cons |rows |cuts |sepa|confs|strbr|  dualbound   | primalbound  |  gap   | compl. 
  372s|     1 |     0 |    14 |     - |    13G |   0 |4065 | 525k| 525k|   0 |  0 |  42 |   0 | 3.410000e+02 |      --      |    Inf | unknown
r 374s|     1 |     0 |    14 |     - |shifting|   0 |4065 | 525k| 525k|   0 |  0 |  42 |   0 | 3.410000e+02 | 3.850000e+02 |  12.90%| unknown
  378s|     1 |     0 |    28 |     - |    13G |   0 |4065 | 525k| 525k|   3 |  1 |  42 |   0 | 3.410000e+02 | 3.850000e+02 |  12.90%| unknown
  384s|     1 |     0 |    47 |     - |    13G |   0 |4065 | 525k| 525k|   7 |  2 |  42 |   0 | 3.410000e+02 | 3.850000e+02 |  12.90%| unknown
  388s|     1 |     0 |    81 |     - |    13G |   0 |4065 | 525k| 525k|  15 |  3 |  44 |   0 | 3.410000e+02 | 3.850000e+02 |  12.90%| unknown
  392s|     1 |     0 |   111 |     - |    13G |   0 |4065 | 525k| 525k|  20 |  4 |  44 |   0 | 3.410000e+02 | 3.850000e+02 |  12.90%| unknown
  398s|     1 |     0 |   139 |     - |    13G |   0 |4065 | 525k| 525k|  26 |  5 |  44 |   0 | 3.410000e+02 | 3.850000e+02 |  12.90%| unknown
  402s|     1 |     0 |   168 |     - |    13G |   0 |4065 | 525k| 525k|  34 |  6 |  46 |   0 | 3.410000e+02 | 3.850000e+02 |  12.90%| unknown
  406s|     1 |     0 |   205 |     - |    13G |   0 |4065 | 525k| 525k|  40 |  7 |  46 |   0 | 3.410000e+02 | 3.850000e+02 |  12.90%| unknown
  412s|     1 |     0 |   233 |     - |    14G |   0 |4065 | 525k| 525k|  48 |  8 |  46 |   0 | 3.410000e+02 | 3.850000e+02 |  12.90%| unknown
  416s|     1 |     0 |   402 |     - |    14G |   0 |4065 | 525k| 525k|  57 |  9 |  50 |   0 | 3.410000e+02 | 3.850000e+02 |  12.90%| unknown
  420s|     1 |     0 |   528 |     - |    14G |   0 |4065 | 525k| 525k|  61 | 10 |  53 |   0 | 3.410000e+02 | 3.850000e+02 |  12.90%| unknown
  434s|     1 |     0 |   657 |     - |    14G |   0 |4065 | 525k| 524k|  65 | 11 |  53 |   0 | 3.410000e+02 | 3.850000e+02 |  12.90%| unknown
  438s|     1 |     0 |   776 |     - |    14G |   0 |4065 | 525k| 524k|  71 | 12 |  55 |   0 | 3.410000e+02 | 3.850000e+02 |  12.90%| unknown
  444s|     1 |     0 |   929 |     - |    14G |   0 |4065 | 525k| 524k|  79 | 13 |  55 |   0 | 3.410000e+02 | 3.850000e+02 |  12.90%| unknown
 time | node  | left  |LP iter|LP it/n|mem/heur|mdpt |vars |cons |rows |cuts |sepa|confs|strbr|  dualbound   | primalbound  |  gap   | compl. 
r 450s|     1 |     0 |  1042 |     - |shifting|   0 |4065 | 525k| 524k|  79 | 13 |  56 |   0 | 3.410000e+02 | 3.740000e+02 |   9.68%| unknown
  785s|     1 |     2 |  1198 |     - |    14G |   0 |4065 | 525k| 524k|  79 | 13 |  69 |  41 | 3.410000e+02 | 3.740000e+02 |   9.68%| unknown
*1157s|     5 |     3 |  1374 |  83.0 |strongbr|   4 |4065 | 525k| 524k|  79 | 11 | 151 | 134 | 3.410000e+02 | 3.630000e+02 |   6.45%|   7.98%

SCIP Status        : problem is solved [optimal solution found]
Solving Time (sec) : 1977.51
Solving Nodes      : 20
Primal Bound       : +3.63000000000000e+02 (5 solutions)
Dual Bound         : +3.63000000000000e+02
Gap                : 0.00 %
SCIP Status        : problem is solved [optimal solution found]
Total Time         :    2013.50
  solving          :    1977.51
  presolving       :     248.35 (included in solving)
  reading          :      35.98
  copying          :       4.77 (2 #copies) (minimal 2.27, maximal 2.50, average 2.38)
Original Problem   :
  Problem name     : mspp16
  Variables        : 29280 (29280 binary, 0 integer, 0 implicit integer, 0 continuous)
  Constraints      : 561657 initial, 561657 maximal
  Objective        : minimize, 4065 non-zeros (abs.min = 11, abs.max = 11)
Presolved Problem  :
  Problem name     : t_mspp16
  Variables        : 4065 (4065 binary, 0 integer, 0 implicit integer, 0 continuous)
  Constraints      : 525242 initial, 525602 maximal
  Objective        : minimize, 3585 non-zeros (abs.min = 1, abs.max = 1)
  Nonzeros         : 28060559 constraint, 11546 clique table
Presolvers         :   ExecTime  SetupTime  Calls  FixedVars   AggrVars   ChgTypes  ChgBounds   AddHoles    DelCons    AddCons   ChgSides   ChgCoefs
  boundshift       :       0.00       0.00      0          0          0          0          0          0          0          0          0          0
  convertinttobin  :       0.00       0.00      0          0          0          0          0          0          0          0          0          0
  domcol           :       2.80       0.00      2          0          0          0          0          0          0          0          0          0
  dualagg          :       0.00       0.00      0          0          0          0          0          0          0          0          0          0
  dualcomp         :       0.00       0.00      0          0          0          0          0          0          0          0          0          0
  dualinfer        :       0.00       0.00      0          0          0          0          0          0          0          0          0          0
  dualsparsify     :       6.07       0.00      1          0          0          0          0          0          0          0          0          0
  gateextraction   :       0.00       0.00      0          0          0          0          0          0          0          0          0          0
  implics          :       0.00       0.00      4          0          0          0          0          0          0          0          0          0
  inttobinary      :       0.00       0.00      0          0          0          0          0          0          0          0          0          0
  qpkktref         :       0.00       0.00      0          0          0          0          0          0          0          0          0          0
  redvub           :       0.00       0.00      0          0          0          0          0          0          0          0          0          0
  sparsify         :       4.51       0.00      2          0          0          0          0          0          0          0          0        480
  stuffing         :       0.00       0.00      0          0          0          0          0          0          0          0          0          0
  trivial          :       0.00       0.00      5          0          0          0          0          0          0          0          0          0
  tworowbnd        :       0.00       0.00      0          0          0          0          0          0          0          0          0          0
  dualfix          :       0.00       0.00      5          0          0          0          0          0          0          0          0          0
  genvbounds       :       0.00       0.00      0          0          0          0          0          0          0          0          0          0
  probing          :      29.31       0.00      1          0          0          0          0          0          0          0          0          0
  pseudoobj        :       0.00       0.00      0          0          0          0          0          0          0          0          0          0
  symmetry         :     155.56       0.00      1          0          0          0          0          0          0        428          0          0
  vbounds          :       0.00       0.00      3          0          0          0          0          0          0          0          0          0
  knapsack         :      30.54       0.28      8          0          0          0          0          0        210        210        210       3840
  setppc           :       0.01       0.00      8          0          0          0          0          0          0          0          0          0
  linear           :      13.82       5.33      8      25215          0          0      25215          0      36843          0       1007          0
  orbisack         :       0.00       0.00      1          0          0          0          0          0          0          0          0          0
  symretope        :       0.00       0.00      1          0          0          0          0          0          0          0          0          0
  logicor          :       0.00       0.00      0          0          0          0          0          0          0          0          0          0
  benders          :       0.00       0.00      0          0          0          0          0          0          0          0          0          0
  components       :       2.56       0.00      1          0          0          0          0          0          0          0          0          0
  root node        :          -          -      -       4057          -          -       4057          -          -          -          -          -
Constraints        :     Number  MaxNumber  #Separate #Propagate    #EnfoLP    #EnfoRelax  #EnfoPS    #Check   #ResProp    Cutoffs    DomReds       Cuts    Applied      Conss   Children
  benderslp        :          0          0          0          0        109          0          0         20          0          0          0          0          0          0          0
  integral         :          0          0          0          0        109          0          0         20          0          3        501          0          0        443         20
  knapsack         :     522878     522878         13       6281          0          0          0         15       3211         25       3326        142         13          0          0
  setppc           :       1936+      2094         13       6256          0          0          0          6       2297         19        855          1          0          0          0
  linear           :          0+         5          0        190          0          0          0          0          0          0          0          0          0          0          0
  orbisack         :        391        391          0        151          0          0          0          5       2840         20         28          0          0          0          0
  symretope        :         37         37          0        302          0          0          0          5        200          2         10          0          0          0          0
  logicor          :          0+       203         13        753          0          0          0          0         33         15         22         17          5          0          0
  benders          :          0          0          0          0          0          0          0          6          0          0          0          0          0          0          0
  countsols        :          0          0          0          0          0          0          0          6          0          0          0          0          0          0          0
  components       :          0          0          0          0          0          0          0          0          0          0          0          0          0          0          0
Constraint Timings :  TotalTime  SetupTime   Separate  Propagate     EnfoLP     EnfoPS     EnfoRelax   Check    ResProp    SB-Prop
  benderslp        :       0.00       0.00       0.00       0.00       0.00       0.00       0.00       0.00       0.00       0.00
  integral         :    1223.31       0.00       0.00       0.00    1223.30       0.00       0.00       0.01       0.00       0.00
  knapsack         :     135.65       0.28      13.87      71.78       0.00       0.00       0.00       2.42       0.01      47.29
  setppc           :      44.46       0.00       0.00      16.47       0.00       0.00       0.00       0.00       0.00      27.99
  linear           :       5.33       5.33       0.00       0.00       0.00       0.00       0.00       0.00       0.00       0.00
  orbisack         :       7.14       0.00       0.00       7.03       0.00       0.00       0.00       0.00       0.05       0.06
  symretope        :       0.28       0.00       0.00       0.21       0.00       0.00       0.00       0.00       0.00       0.07
  logicor          :       0.97       0.00       0.00       0.06       0.00       0.00       0.00       0.00       0.00       0.91
  benders          :       0.00       0.00       0.00       0.00       0.00       0.00       0.00       0.00       0.00       0.00
  countsols        :       0.00       0.00       0.00       0.00       0.00       0.00       0.00       0.00       0.00       0.00
  components       :       0.00       0.00       0.00       0.00       0.00       0.00       0.00       0.00       0.00       0.00
Propagators        : #Propagate   #ResProp    Cutoffs    DomReds
  dualfix          :          1          0          0          0
  genvbounds       :          0          0          0          0
  nlobbt           :          0          0          0          0
  obbt             :          0          0          0          0
  probing          :          0          0          0          0
  pseudoobj        :        335         10          0        140
  redcost          :        252          0          0      18745
  rootredcost      :          2          0          0         24
  symmetry         :          0          0          0          0
  vbounds          :        826          0          0          0
Propagator Timings :  TotalTime  SetupTime   Presolve  Propagate    ResProp    SB-Prop
  dualfix          :       0.00       0.00       0.00       0.00       0.00       0.00
  genvbounds       :       0.00       0.00       0.00       0.00       0.00       0.00
  nlobbt           :       0.00       0.00       0.00       0.00       0.00       0.00
  obbt             :       0.00       0.00       0.00       0.00       0.00       0.00
  probing          :      29.31       0.00      29.31       0.00       0.00       0.00
  pseudoobj        :       0.45       0.00       0.00       0.45       0.00       0.00
  redcost          :      56.74       0.00       0.00      56.74       0.00       0.00
  rootredcost      :       0.07       0.00       0.00       0.07       0.00       0.00
  symmetry         :     155.56       0.00     155.56       0.00       0.00       0.00
  vbounds          :       0.01       0.00       0.00       0.01       0.00       0.00
Orbital fixing     :
  vars fixed to 0  :          0
  vars fixed to 1  :          0
Conflict Analysis  :       Time      Calls    Success    DomReds  Conflicts   Literals    Reconvs ReconvLits   Dualrays   Nonzeros   LP Iters   (pool size: [10000,10000])
  propagation      :       0.08         70         60          -        238      582.6         11        5.5          -          -          -
  infeasible LP    :       0.00          0          0          -          0        0.0          0        0.0          0        0.0          0
  bound exceed. LP :     338.95        287        395          -        525       38.9          2       36.0        114        1.4       1340
  strong branching :       0.00          0          0          -          0        0.0          0        0.0          -          -          0
  pseudo solution  :       0.00          0          0          -          0        0.0          0        0.0          -          -          -
  applied globally :       0.02          -          -        109        543       23.7          -          -        114          -          -
  applied locally  :          -          -          -          0          1      788.0          -          -          0          -          -
Separators         :   ExecTime  SetupTime      Calls  RootCalls    Cutoffs    DomReds  FoundCuts ViaPoolAdd  DirectAdd    Applied ViaPoolApp  DirectApp      Conss
  cut pool         :       0.00          -         25         25          -          -        620        226          -          -          -          -          -    (maximal pool size:        620)
  aggregation      :       2.01       0.00         13         13          0          0        140        124          0         56         56          0          0
  > cmir           :          -          -          -          -          -          -          -         50          0         29         29          0          -
  > flowcover      :          -          -          -          -          -          -          -         27          0          0          0          0          -
  > knapsackcover  :          -          -          -          -          -          -          -         47          0         27         27          0          -
  cgmip            :       0.00       0.00          0          0          0          0          0          0          0          0          0          0          0
  clique           :       0.02       0.00         13         13          0          0          0          0          0          0          0          0          0
  closecuts        :       0.00       0.00          0          0          0          0          0          0          0          0          0          0          0
  convexproj       :       0.00       0.00          0          0          0          0          0          0          0          0          0          0          0
  disjunctive      :       0.00       0.00          0          0          0          0          0          0          0          0          0          0          0
  eccuts           :       0.00       0.00          0          0          0          0          0          0          0          0          0          0          0
  gauge            :       0.00       0.00          0          0          0          0          0          0          0          0          0          0          0
  gomory           :       2.07       0.00         10         10          0          0        462         91          0          3          3          0          0
  > gomorymi       :          -          -          -          -          -          -          -         50          0          1          1          0          -
  > strongcg       :          -          -          -          -          -          -          -         41          0          2          2          0          -
  impliedbounds    :       0.00       0.00         13         13          0          0          1          1          0          1          1          0          0
  interminor       :       0.00       0.00          0          0          0          0          0          0          0          0          0          0          0
  intobj           :       0.00       0.00          0          0          0          0          0          0          0          0          0          0          0
  mcf              :       0.00       0.00          0          0          0          0          0          0          0          0          0          0          0
  minor            :       0.00       0.00          0          0          0          0          0          0          0          0          0          0          0
  mixing           :       0.00       0.00          0          0          0          0          0          0          0          0          0          0          0
  oddcycle         :       0.00       0.00          0          0          0          0          0          0          0          0          0          0          0
  rapidlearning    :       0.24       0.00          0          0          0          0          0          0          0          0          0          0          0
  rlt              :       0.00       0.00         10         10          0          0          0          0          0          0          0          0          0
  zerohalf         :       0.47       0.00         13         13          0          0         17         10          0          1          1          0          0
Cutselectors       :   ExecTime  SetupTime      Calls  RootCalls   Selected     Forced   Filtered  RootSelec   RootForc   RootFilt 
  hybrid           :       0.00       0.00         13         13         79          0        307         79          0        307
Pricers            :   ExecTime  SetupTime      Calls       Vars
  problem variables:       0.00          -          0          0
Branching Rules    :   ExecTime  SetupTime   BranchLP  BranchExt   BranchPS    Cutoffs    DomReds       Cuts      Conss   Children
  allfullstrong    :       0.00       0.00          0          0          0          0          0          0          0          0
  cloud            :       0.00       0.00          0          0          0          0          0          0          0          0
  distribution     :       0.00       0.00          0          0          0          0          0          0          0          0
  fullstrong       :       0.00       0.00          0          0          0          0          0          0          0          0
  inference        :       0.00       0.00          0          0          0          0          0          0          0          0
  leastinf         :       0.00       0.00          0          0          0          0          0          0          0          0
  lookahead        :       0.00       0.00          0          0          0          0          0          0          0          0
  mostinf          :       0.00       0.00          0          0          0          0          0          0          0          0
  multaggr         :       0.00       0.00          0          0          0          0          0          0          0          0
  nodereopt        :       0.00       0.00          0          0          0          0          0          0          0          0
  pscost           :       0.00       0.00          0          0          0          0          0          0          0          0
  random           :       0.00       0.00          0          0          0          0          0          0          0          0
  relpscost        :    1223.30       0.00        109          0          0          3        501          0        447         20
  vanillafullstrong:       0.00       0.00          0          0          0          0          0          0          0          0
Primal Heuristics  :   ExecTime  SetupTime      Calls      Found       Best
  LP solutions     :       0.00          -          -          0          0
  relax solutions  :       0.00          -          -          0          0
  pseudo solutions :       0.00          -          -          0          0
  strong branching :       0.06          -          -          1          1
  actconsdiving    :       0.00       0.00          0          0          0
  adaptivediving   :       0.00       0.00          0          0          0
  alns             :       7.27       0.00          1          0          0
  bound            :       0.00       0.00          0          0          0
  clique           :      27.30       0.00          1          0          0
  coefdiving       :       0.00       0.00          0          0          0
  completesol      :       0.00       0.00          0          0          0
  conflictdiving   :      37.73       0.00          1          0          0
  crossover        :       0.00       0.00          0          0          0
  dins             :       0.00       0.00          0          0          0
  distributiondivin:       0.01       0.00          0          0          0
  dps              :       0.00       0.00          0          0          0
  dualval          :       0.00       0.00          0          0          0
  farkasdiving     :       0.00       0.00          0          0          0
  feaspump         :      45.84       0.00          1          1          0
  fixandinfer      :       0.00       0.00          0          0          0
  fracdiving       :       0.00       0.00          0          0          0
  gins             :       0.00       0.00          0          0          0
  guideddiving     :       0.00       0.00          0          0          0
  indicator        :       0.00       0.00          0          0          0
  intdiving        :       0.00       0.00          0          0          0
  intshifting      :       0.00       0.00          0          0          0
  linesearchdiving :       0.00       0.00          0          0          0
  localbranching   :       0.00       0.00          0          0          0
  locks            :      29.14       0.00          1          0          0
  lpface           :       0.00       0.00          0          0          0
  mpec             :       0.00       0.00          0          0          0
  multistart       :       0.00       0.00          0          0          0
  mutation         :       0.00       0.00          0          0          0
  nlpdiving        :       0.00       0.00          0          0          0
  objpscostdiving  :       0.00       0.00          0          0          0
  octane           :       0.00       0.00          0          0          0
  ofins            :       0.00       0.00          0          0          0
  oneopt           :       1.22       0.00          3          0          0
  padm             :       0.00       0.00          0          0          0
  proximity        :       0.00       0.00          0          0          0
  pscostdiving     :       0.00       0.00          0          0          0
  randrounding     :      12.48       0.00         14          0          0
  rens             :       3.50       0.00          1          0          0
  reoptsols        :       0.00       0.00          0          0          0
  repair           :       0.00       0.00          0          0          0
  rins             :       0.00       0.00          0          0          0
  rootsoldiving    :       0.00       0.00          0          0          0
  rounding         :       2.76       0.00        109          0          0
  shiftandpropagate:      18.22       0.00          1          0          0
  shifting         :       2.09       0.00         14          3          2
  simplerounding   :       0.00       0.00          0          0          0
  subnlp           :       0.00       0.00          0          0          0
  trivial          :       0.46       0.00          2          0          0
  trivialnegation  :       0.00       0.00          0          0          0
  trustregion      :       0.00       0.00          0          0          0
  trysol           :       0.00       0.00          0          0          0
  twoopt           :       0.00       0.00          0          0          0
  undercover       :       0.00       0.00          0          0          0
  vbounds          :      13.74       0.00          1          0          0
  veclendiving     :       0.00       0.00          0          0          0
  zeroobj          :       0.00       0.00          0          0          0
  zirounding       :       0.27       0.00         10          0          0
  other solutions  :          -          -          -          0          -
LP                 :       Time      Calls Iterations  Iter/call   Iter/sec  Time-0-It Calls-0-It    ItLimit
  primal LP        :      18.10          2          0       0.00       0.00      18.10          2
  dual LP          :     128.28        140       1956      16.72      15.25       4.76         23
  lex dual LP      :       0.00          0          0       0.00          -
  barrier LP       :       0.00          0          0       0.00          -       0.00          0
  resolve instable :       0.00          0          0       0.00          -
  diving/probing LP:     108.63         27        374      13.85       3.44
  strong branching :     712.87        504      18290      36.29      25.66          -          -          0
    (at root node) :          -         41       7664     186.93          -
  conflict analysis:     335.53        142       1340       9.44       3.99
B&B Tree           :
  number of runs   :          1
  nodes            :         20 (10 internal, 10 leaves)
  feasible leaves  :          0
  infeas. leaves   :          5
  objective leaves :          5
  nodes (total)    :         20 (10 internal, 10 leaves)
  nodes left       :          0
  max depth        :          7
  max depth (total):          7
  backtracks       :          3 (15.0%)
  early backtracks :          0 (0.0%)
  nodes exc. ref.  :          0 (0.0%)
  delayed cutoffs  :          0
  repropagations   :         22 (31 domain reductions, 0 cutoffs)
  avg switch length:       4.20
  switching time   :      48.30
Root Node          :
  First LP value   : +3.41000000000000e+02
  First LP Iters   :         14 (0.50 Iter/sec)
  First LP Time    :      27.76
  Final Dual Bound : +3.41000000000000e+02
  Final Root Iters :       1042
  Root LP Estimate : +3.41733079678320e+02
Solution           :
  Solutions found  :          5 (3 improvements)
  First Solution   : +3.85000000000000e+02   (in run 1, after 1 nodes, 373.38 seconds, depth 0, found by <shifting>)
  Gap First Sol.   :      12.90 %
  Gap Last Sol.    :       6.45 %
  Primal Bound     : +3.63000000000000e+02   (in run 1, after 5 nodes, 1157.32 seconds, depth 6, found by <relaxation>)
  Dual Bound       : +3.63000000000000e+02
  Gap              :       0.00 %
Integrals          :      Total       Avg%
  primal-dual      :   49299.35      24.93
  primal-ref       :          -          - (not evaluated)
  dual-ref         :          -          - (not evaluated)
written solution information to file <results/final_miplib_symretope_if_extended_generating_set_cpx_v802__settings_final_nopeek_norelabel_extend_norestarts__0__mspp16.mps.gz.sol>
@04 1686651300
